====================================================================================================================
File name: 100_10_64_9.def
Creation date: Mon Nov 24 20:40:29 CET 2014
Website: http://imopse.ii.pwr.edu.pl/
Reference:
Myszkowski P. B., Skowronski M. E., Olech L., Oslizlo K.,
Hybrid Ant Colony Optimization in solving Multi-Skill Resource-Constrained Project Scheduling Problem,
Soft Computing, DOI: DOI 10.1007/s00500-014-1455-x
====================================================================================================================
General characteristics:
Tasks: 100
Resources: 10
Precedence relations: 64
Number of skill types: 9
====================================================================================================================
ResourceID 	 Salary 	 Skills
1	 	 	16.6	 	 Q8: 2 	  Q1: 2 	  Q5: 2 	  Q2: 1 	  Q6: 1 	  Q3: 0
2	 	 	94.2	 	 Q5: 1 	  Q4: 2 	  Q8: 1 	  Q7: 1 	  Q3: 1 	  Q0: 1
3	 	 	77.3	 	 Q2: 2 	  Q3: 2 	  Q7: 0 	  Q5: 1 	  Q8: 0 	  Q1: 2
4	 	 	50.1	 	 Q4: 0 	  Q7: 2 	  Q2: 2 	  Q8: 1 	  Q1: 2 	  Q6: 1
5	 	 	28.4	 	 Q7: 2 	  Q3: 1 	  Q2: 0 	  Q6: 2 	  Q4: 1 	  Q0: 2
6	 	 	24.5	 	 Q8: 2 	  Q3: 1 	  Q7: 0 	  Q1: 0 	  Q2: 1 	  Q0: 1
7	 	 	51.3	 	 Q1: 2 	  Q3: 2 	  Q7: 0 	  Q0: 2 	  Q8: 1 	  Q4: 1
8	 	 	54.4	 	 Q4: 0 	  Q0: 0 	  Q3: 2 	  Q1: 1 	  Q7: 0 	  Q5: 2
9	 	 	40.2	 	 Q0: 0 	  Q8: 1 	  Q1: 1 	  Q7: 1 	  Q6: 1 	  Q2: 2
10	 	 	46.5	 	 Q8: 1 	  Q7: 1 	  Q2: 1 	  Q4: 0 	  Q1: 2 	  Q3: 1
====================================================================================================================
TaskID 	 Duration 	 Skill 	 Predecessor IDs
1	 	 	35	 Q7: 1
2	 	 	19	 Q0: 2
3	 	 	15	 Q2: 0
4	 	 	8	 Q1: 0
5	 	 	27	 Q7: 0
6	 	 	25	 Q8: 1
7	 	 	20	 Q0: 0
8	 	 	25	 Q0: 0
9	 	 	10	 Q5: 2	 	3	1
10	 	 	35	 Q4: 0
11	 	 	20	 Q1: 2
12	 	 	9	 Q7: 0
13	 	 	22	 Q5: 1
14	 	 	17	 Q0: 0
15	 	 	15	 Q7: 2	 	13	9
16	 	 	20	 Q7: 0
17	 	 	20	 Q2: 0
18	 	 	13	 Q5: 2
19	 	 	10	 Q8: 1	 	7
20	 	 	15	 Q1: 1
21	 	 	27	 Q2: 2
22	 	 	22	 Q3: 1
23	 	 	14	 Q6: 1	 	15
24	 	 	35	 Q5: 2	 	19
25	 	 	17	 Q5: 1
26	 	 	34	 Q2: 2	 	14
27	 	 	30	 Q1: 2
28	 	 	36	 Q2: 2
29	 	 	38	 Q4: 2
30	 	 	39	 Q6: 2
31	 	 	29	 Q2: 2
32	 	 	32	 Q3: 0
33	 	 	33	 Q0: 0
34	 	 	38	 Q1: 1	 	24
35	 	 	18	 Q2: 0
36	 	 	14	 Q6: 2
37	 	 	33	 Q7: 0	 	2
38	 	 	30	 Q5: 1
39	 	 	9	 Q1: 1
40	 	 	18	 Q8: 1
41	 	 	23	 Q6: 2
42	 	 	11	 Q0: 1	 	16
43	 	 	30	 Q4: 0	 	40
44	 	 	18	 Q5: 1	 	17
45	 	 	26	 Q6: 1	 	13
46	 	 	20	 Q3: 0
47	 	 	20	 Q6: 2
48	 	 	12	 Q7: 2
49	 	 	19	 Q0: 0	 	41	15
50	 	 	22	 Q2: 1	 	13
51	 	 	11	 Q1: 0
52	 	 	30	 Q7: 0	 	23
53	 	 	23	 Q4: 1
54	 	 	36	 Q1: 0	 	37
55	 	 	16	 Q4: 0	 	28
56	 	 	30	 Q7: 1	 	17	26
57	 	 	22	 Q3: 2	 	35
58	 	 	9	 Q7: 1
59	 	 	13	 Q4: 1
60	 	 	30	 Q3: 0	 	10
61	 	 	37	 Q2: 1	 	58
62	 	 	21	 Q7: 1
63	 	 	30	 Q0: 2	 	41
64	 	 	27	 Q2: 0	 	49	48	16
65	 	 	25	 Q0: 1	 	55
66	 	 	10	 Q6: 2	 	6
67	 	 	39	 Q0: 1
68	 	 	38	 Q6: 2
69	 	 	33	 Q4: 2
70	 	 	33	 Q2: 0
71	 	 	18	 Q1: 0	 	30
72	 	 	36	 Q8: 0	 	31
73	 	 	20	 Q7: 0
74	 	 	36	 Q2: 1
75	 	 	30	 Q2: 0	 	52
76	 	 	15	 Q1: 1	 	15
77	 	 	17	 Q4: 2	 	13	57
78	 	 	18	 Q5: 1	 	74
79	 	 	13	 Q2: 2	 	74
80	 	 	40	 Q7: 2	 	7
81	 	 	20	 Q7: 0	 	44	65
82	 	 	34	 Q6: 2
83	 	 	33	 Q7: 0	 	9
84	 	 	20	 Q5: 2
85	 	 	18	 Q0: 1	 	23
86	 	 	15	 Q8: 0	 	76
87	 	 	19	 Q2: 1	 	82
88	 	 	15	 Q2: 2	 	84	73
89	 	 	28	 Q7: 1
90	 	 	37	 Q3: 1	 	79	22
91	 	 	28	 Q0: 1	 	30	79
92	 	 	27	 Q5: 2	 	83
93	 	 	18	 Q7: 1
94	 	 	29	 Q3: 2	 	76
95	 	 	27	 Q2: 1	 	78
96	 	 	26	 Q7: 1
97	 	 	31	 Q7: 2	 	87	77	6
98	 	 	25	 Q7: 0	 	60	85	23
99	 	 	36	 Q1: 2	 	10	8
100	 	 	30	 Q8: 1	 	47
====================================================================================================================
